####################################################################################################
# 
# Test of hybrid interaction: peri/ipmb and mpm
# A stationary plate is modelled as elastic/perfectly plastic with MPM.
# A block of a brittel material, modelled using the Peridynamic pair style peri/ipmb, impacts this
# plate. Contact between both solid bodies is handeled via a Hertzian repulsive potential.
#
# Note that MPM material model & parameters are defined in file "materials.ini"
# Peridynamic pair style however needs material parameter definitions directly in this LAMMPS script.
#
# unit sytem: GPa / mm / ms
#
####################################################################################################


####################################################################################################
# MATERIAL PARAMETERS
####################################################################################################
variable 	rho equal 1.0 # initial mass density
variable        K equal 1 # stiffness for Peridynamic material model
variable        contact_stiffness equal 1*${K} # Contact stiffness between iPMB and MPM particles
variable        smax equal 1.0 # brittle failure strain for iPMB -- very large so effectively deactivated
variable        syield equal 10.0 # plastic yield strain for iPMB -- very large so effectively deactivated
variable        G0 equal -1.0 # energy release rate based failure criterion for iPMB. Deactived if < 0
variable        visc equal 1.0 # artificial viscosity for iPMB


####################################################################################################
# INITIALIZE LAMMPS
####################################################################################################
dimension       3
units		si
boundary        p p s # simulation box boundaries
atom_style      smd
atom_modify	map array
comm_modify     vel yes
comm_style      tiled
neigh_modify    every 10 delay 0 check yes
newton          off

####################################################################################################
# CREATE INITIAL GEOMETRY
####################################################################################################
variable 	l0 equal 1.0 # lattice spacing for creating particles
lattice 	sc ${l0}
region          box block -5 45 -5 20 0 20 units box
create_box 	2 box

region		mpm_particles block -5 45 -5 20 0 5 units box # plate of MPM particles
create_atoms 	1 region mpm_particles
group           mpm_particles type 1

region		peri_particles block 0 5 0 5 7 12 units box # block of Peridynamic particles
create_atoms 	2 region peri_particles
group           peri_particles type 2



####################################################################################################
# DISCRETIZATION PARAMETERS
####################################################################################################
variable 	vol_one equal ${l0}^3 # volume of one particle -- assuming sc lattice
variable 	skin equal 0.2*${l0} # Verlet list range
neighbor        ${skin} bin
variable        cr equal ${l0}/2
set             group all smd_contact_radius ${cr}
set 		group all volume ${vol_one}
set             group all smd_mass_density ${rho}
set             group mpm_particles smd_heat 0.0
set 		group mpm_particles diameter ${cr} # MPM particles make no use of kernel radius
variable        mpm_cellsize equal ${l0}
variable        contact_scale equal 1.0 # scale factor for contact radius for Hertzian interaction between peri and MPM particles

variable        peri_kernel equal 2.5*${l0} # peridynamic particles need a finite kernel
set 		group peri_particles diameter ${peri_kernel} # set SPH kernel radius


####################################################################################################
# DEFINE BOUNDARY CONDITIONS
####################################################################################################
#fix		gfix all gravity 0.0001 vector 0.0 0.0 -1

# create a group to hold the bottom layer of plate particles at constant position
region          bot block EDGE EDGE EDGE EDGE EDGE 0.51 units box
set             region bot mol 1000 # MPM particles with mol id 1000 are not moved in the code

####################################################################################################
# INTERACTION PHYSICS / MATERIAL MODEL
####################################################################################################
pair_style      hybrid/overlay smd/peri_ipmb &
                               smd/hertz ${contact_scale} &
                               smd/mpm_linear ${mpm_cellsize} FLIP 0.99
# note that mpm pair style must be listed at last position if multiple pair styles are used
pair_coeff      1 1 smd/mpm_linear
pair_coeff      2 2 smd/peri_ipmb ${rho} ${K} ${smax} ${G0} ${visc} ${syield} 0
pair_coeff      1 2 smd/hertz ${contact_stiffness}


####################################################################################################
# TIME INTEGRATION
####################################################################################################
fix             dtfix all smd/adjust_dt 0.5 # dynamically adjust time increment every step
# --- time integration of MPM particles is handled inside MPM pair style --- 
fix             force_fix1 peri_particles setforce 0 0 NULL
fix             force_fix2 peri_particles addforce 0 0 -0.001
fix             nve_peri_fix peri_particles nve # peri particles need to have a time integration fix


####################################################################################################
# SPECIFY TRAJECTORY OUTPUT
####################################################################################################
variable        dumpFreq equal 100
compute         P mpm_particles smd/plastic_strain
compute 	vol all smd/volume
compute         contact_radius all smd/contact_radius
compute         S mpm_particles smd/ulsph_stress
compute         eint all smd/internal_energy # elastic continuum energy 
compute         heat all smd/heat # dissipated continuum energy, e.g. by plastic deformation

dump 		dump_id all custom ${dumpFreq} dump.LAMMPS id type x y z vx vy vz &
			c_vol c_contact_radius proc c_P c_S[7] c_eint c_heat
dump_modify 	dump_id first yes

####################################################################################################
# STATUS OUTPUT
####################################################################################################
compute         alleint all reduce sum c_eint
compute         total_heat all reduce sum c_heat
variable        etot equal pe+ke+c_alleint # total energy of the system
thermo 10
thermo_style custom step dt time pe ke c_alleint c_total_heat v_etot f_dtfix[1] f_dtfix[2] f_dtfix[3] f_dtfix[4] f_dtfix[5] f_dtfix[6]

####################################################################################################
# RUN SIMULATION
####################################################################################################
run 0
#velocity         peri_particles set 0.1 0.1 0 units box
#balance          1.1 rcb
#fix              balance_fix all balance 1000 1.1 rcb 

variable         a equal f_force_fix1[2]
fix              extra all print 100 "$a" file coord.txt screen no


smd_run_duration 1000 # run duration in physical time
run              999999999 # run for a large number of timesteps. Exits if run duration is exceeded.

