####################################################################################################
#
# flow particles from left to right
# unit sytem: GPa / mm / ms
# need to fix distance cutoff: master list is worng!
#
####################################################################################################

####################################################################################################
# MATERIAL PARAMETERS
####################################################################################################
variable        rho equal 1000 # mass density water
variable        contact_stiffness equal 1.0e5
variable        contact_scale equal 2.0 # scale factor to increase contact gap between bodies
variable        temp_left equal 200
variable        temp_right equal 100

####################################################################################################
# INITIALIZE LAMMPS
####################################################################################################
units		si
dimension       2
#processors      2 1 1
boundary        f f p
atom_style      smd
neigh_modify    every 10 delay 0 check no
comm_modify     vel yes
newton          off
#atom_modify     map hash
#comm_style      brick

####################################################################################################
# CREATE SIMULATION BOX
####################################################################################################
variable        l0 equal 1 # initial particle lattice spacing
lattice         sq ${l0}
region          box block 0 80 -0.01 13.01 -0.1 0.1 units box
create_box      2 box
region          inflow block 0.9 1.8 1 12 EDGE EDGE units box
region          constvel block EDGE 10 EDGE EDGE EDGE EDGE units box
region          outflow block 40 EDGE EDGE EDGE EDGE EDGE units box

####################################################################################################
# CREATE PARTICLES
####################################################################################################
group inflow 	type 1

create_atoms    2 single 20 6.5 0
create_atoms    1 single 10 8.5 0

####################################################################################################
# DISCRETIZATION PARAMETERS
####################################################################################################
variable        vol_one equal ${l0}^2 # initial particle volume for 2d simulation
variable        contact_radius equal 2
set             group all diameter 4
set             group all smd_contact_radius ${contact_radius}
set             group all volume  ${vol_one}
set             group all smd_mass_density ${rho}

variable        skin equal 0.1*${l0} # Verlet list range
neighbor        ${skin} bin
variable        mpm_cellsize equal 1.0*${l0}

####################################################################################################
# DEFINE BOUNDARY CONDITIONS
####################################################################################################
fix 		inflow all smd/inflow rho 1000 radius ${l0} freq 20 region inflow velocity 0.05 &
                direction x type 1 contact_radius 0.5
fix             outflow all smd/outflow 10 outflow

####################################################################################################
# SET TEMPERATURE
####################################################################################################
variable        mass_one equal ${rho}*${vol_one}

####################################################################################################
# INTERACTION PHYSICS / MATERIAL MODEL
# 3 different pair styles are used:
#     - updated Lagrangian SPH for water
#     - total Lagrangian SPH for solid objects
#     - a repulsive Hertzian potential for contact forces between different physical bodies
####################################################################################################
pair_style      hybrid/overlay smd/hertz 1.0 smd/mpm_linear ${mpm_cellsize} sym_y_+ 0 sym_y_- 13 FLIP 0.99 2d exclude_region constvel 0.05 0 0
pair_coeff      1 1 smd/mpm_linear
pair_coeff      1 2 smd/hertz ${contact_stiffness}
pair_coeff      2 2 none

####################################################################################################
# TIME INTEGRATION
####################################################################################################
fix             dtfix all smd/adjust_dt 0.127 1000.0 # dynamically adjust time increment every step

####################################################################################################
# SPECIFY TRAJECTORY OUTPUT
####################################################################################################
compute         eint all smd/internal_energy
compute         contact_radius all smd/contact_radius
compute         vol all smd/volume
compute         rho all smd/rho
compute         peatom all pe/atom
compute         S all smd/ulsph_stress
compute         D all smd/ulsph_strain_rate
compute         q all smd/heat

dump            dump_id all custom 500 dump.LAMMPS id type x y z &
                fx fy fz vx vy vz c_eint c_contact_radius mol &
                radius c_vol c_rho proc c_peatom c_S[1] c_S[2] c_S[4] c_D[1] c_D[2] c_D[4] c_q
dump_modify     dump_id first yes


####################################################################################################
# STATUS OUTPUT
####################################################################################################
compute         alleint all reduce sum c_eint
compute         allq all reduce sum c_q
variable        etot equal pe+ke+c_alleint # total energy of the system
thermo          100
thermo_style    custom step ke pe v_etot c_alleint dt time
thermo_modify   lost warn

####################################################################################################
# RUN SIMULATION
####################################################################################################
run 1000000
run 1000000
