####################################################################################################
#
# ULSPH example: water flow through a complex geometry read from a .STL file
#
# The boundary dump file (see below) can be converted into VTK format using the conversion
# tool dump2vtk_tris from the tools/smd directory.
#
# unit sytem: GPa / mm / ms
#
####################################################################################################


####################################################################################################
# MATERIAL PARAMETERS
####################################################################################################
variable 	rho equal 1.0 # initial mass density
variable        K equal 1
variable        contact_stiffness equal 1*${K}
variable        wall_temperature equal 100
variable        friction_coeff equal 0.5
variable        visc_coeff equal 0.1

####################################################################################################
# INITIALIZE LAMMPS
####################################################################################################
dimension       3
units		si
boundary        s s s # simulation box boundaries
atom_style      smd
atom_modify	map array
comm_modify     vel yes
comm_style      tiled
neigh_modify    every 10 delay 0 check yes exclude type 2 2
newton          off

####################################################################################################
# CREATE INITIAL GEOMETRY
####################################################################################################
variable 	l0 equal 1.0 # lattice spacing for creating particles
lattice 	sc ${l0}
region          box block -20 100 -20 100 0 20 units box
create_box 	2 box
region		particles block -5 45 -5 20 0 5 units box
create_atoms 	1 region particles
group           water type 1

####################################################################################################
# DISCRETIZATION PARAMETERS
####################################################################################################
variable 	vol_one equal ${l0}^3 # volume of one particle -- assuming unit thickness
variable 	skin equal 1.0*${l0} # Verlet list range
neighbor        ${skin} bin
variable        cr equal ${l0}/2
set             group all smd_contact_radius ${cr}
set 		group all volume ${vol_one}
set             group all smd_mass_density ${rho}
set 		group all diameter ${cr} # set SPH kernel radius
variable        mpm_cellsize equal ${l0}

####################################################################################################
# DEFINE GRAVITY BOUNDARY CONDITION
####################################################################################################
# create a group to hold the bottom layer of plate particles
region          bot block EDGE EDGE EDGE EDGE EDGE 0.51 units box
set             region bot mol 1000

####################################################################################################
# LOAD STL SURFACE
####################################################################################################
smd_create/tri_boundary scratcher.stl 2 65535
group           indentor type 2

####################################################################################################
# INTERACTION PHYSICS / MATERIAL MODEL
####################################################################################################
pair_style      hybrid/overlay smd/tri_surface 1.0 &
                smd/mpm_linear ${mpm_cellsize} FLIP 0.99 
pair_coeff      1 1 smd/mpm_linear
pair_coeff      2 2 none
pair_coeff      1 2 smd/tri_surface ${contact_stiffness} ${wall_temperature} ${friction_coeff} ${visc_coeff}


####################################################################################################
# TIME INTEGRATION
####################################################################################################
fix             force_fix indentor setforce 0 0 0
fix             dtfix all smd/adjust_dt 0.5 # dynamically adjust time increment every step

####################################################################################################
# SPECIFY TRAJECTORY OUTPUT
####################################################################################################
variable        dumpFreq equal 10
compute         P water smd/plastic_strain
compute 	vol all smd/volume
compute         contact_radius all smd/contact_radius
compute         surface_coords indentor smd/triangle_vertices
compute         S water smd/stress
compute         eint all smd/energy

dump 		dump_id all custom ${dumpFreq} dump.LAMMPS id type x y z vx vy vz &
			c_vol c_contact_radius proc c_P c_S[7] c_eint[2] c_eint[3]
dump_modify 	dump_id first yes

dump            surf_dump indentor custom ${dumpFreq} surface.LAMMPS id type mol x y z  &
                  c_surface_coords[1] c_surface_coords[2] c_surface_coords[3]          &
                  c_surface_coords[4] c_surface_coords[5] c_surface_coords[6]          &
                  c_surface_coords[7] c_surface_coords[8] c_surface_coords[9]
dump_modify 	surf_dump first yes

####################################################################################################
# STATUS OUTPUT
####################################################################################################

compute         elastic_energy all reduce sum c_eint[1]
compute         heat all reduce sum c_eint[2]
variable        etot equal pe+ke+c_elastic_energy+c_heat # total energy of the system
thermo 1
thermo_style custom step dt time pe ke v_etot

variable        t equal time
variable        fx equal f_force_fix[1] # x force on indentor
variable        fy equal f_force_fix[2] # x force on indentor
variable        fz equal f_force_fix[3] # x force on indentor
fix             output_fix all print 1 "$t ${fx} ${fy} ${fz}" file force.dat screen no

####################################################################################################
# RUN SIMULATION
####################################################################################################
run 0
balance          1.1 rcb
fix              balance_fix all balance 1000 1.1 rcb 

# move indentor downwards
fix             indentor_fix indentor smd/move_tri_surf *LINEAR 0 0 -0.1
smd_run_duration 8
run             999999

# move indentor over the plane
fix             indentor_fix indentor smd/move_tri_surf *LINEAR 0.07 -0.05 0
smd_run_duration 100
run             999999
