####################################################################################################
#
# MPM example: water flow through a complex geometry read from a .STL file
#
# The boundary dump file (see below) can be converted into VTK format using the conversion
# tool dump2vtk_tris from the tools/smd directory.
#
# unit sytem: GPa / mm / ms
#
####################################################################################################


####################################################################################################
# MATERIAL PARAMETERS
####################################################################################################
variable 	rho equal 1.0e-6 # initial mass density -- this is 1 g/ccm
variable        contact_stiffness equal 0.001 # this will give us a speed of sound of 10
variable        wall_temperature equal 100
variable        friction_coeff equal 0.0
variable        viscous_coeff equal 0.0

####################################################################################################
# INITIALIZE LAMMPS
####################################################################################################
dimension       3
units		si
boundary        f f f # simulation box boundaries
atom_style      smd
comm_modify     vel yes
comm_style      tiled
neigh_modify    every 10 delay 0 check yes exclude type 2 2
newton          off

####################################################################################################
# CREATE INITIAL GEOMETRY
####################################################################################################
variable 	l0 equal 2 # lattice spacing for creating particles
lattice 	sc ${l0}
region		box block -110 60 -30 220 -90 130 units box
create_box 	2 box
region		particles cylinder y 0 -30 47 135 200 units box
create_atoms 	1 region particles
group           water type 1

####################################################################################################
# DISCRETIZATION PARAMETERS
####################################################################################################
variable 	vol_one equal ${l0}^3 # volume of one particle -- assuming unit thickness
variable 	skin equal ${l0} # Verlet list range
neighbor        ${skin} bin
variable        cr equal ${l0}/2
set             group all smd_contact_radius ${cr}
set 		group all volume ${vol_one}
set             group all smd_mass_density ${rho}
set 		group all diameter ${cr} # set SPH kernel radius
variable        mpm_cellsize equal ${l0}

####################################################################################################
# DEFINE GRAVITY BOUNDARY CONDITION
####################################################################################################
fix		gfix all gravity 0.01 vector 0.0 -1. 0.0

####################################################################################################
# LOAD STL SURFACE
####################################################################################################
smd_create/tri_boundary boundary.stl 2 65535
group           surface type 2

####################################################################################################
# INTERACTION PHYSICS / MATERIAL MODEL
####################################################################################################
pair_style      hybrid/overlay smd/tri_surface 1.0 &
                               smd/mpm_linear ${mpm_cellsize} limit_velocity 5
pair_coeff      1 1 smd/mpm_linear
pair_coeff      2 2 none
pair_coeff      1 2 smd/tri_surface ${contact_stiffness} ${wall_temperature} ${friction_coeff} {viscous_coeff} 


####################################################################################################
# TIME INTEGRATION
####################################################################################################
fix             dtfix all smd/adjust_dt 0.5 # dynamically adjust time increment every step

####################################################################################################
# SPECIFY TRAJECTORY OUTPUT
####################################################################################################
variable        dumpFreq equal 100
compute         S water smd/stress
variable        pressure atom -(c_S[1]+c_S[2]+c_S[3])/3.0
compute         contact_radius all smd/contact_radius
compute         surface_coords surface smd/triangle_vertices


dump 		dump_id water custom ${dumpFreq} dump.LAMMPS id type x y z vx vy vz &
			c_contact_radius proc v_pressure
dump_modify 	dump_id first yes

dump            surf_dump surface custom 999999999 surface.LAMMPS id type mol x y z  &
                  c_surface_coords[1] c_surface_coords[2] c_surface_coords[3]          &
                  c_surface_coords[4] c_surface_coords[5] c_surface_coords[6]          &
                  c_surface_coords[7] c_surface_coords[8] c_surface_coords[9]
dump_modify 	surf_dump first yes

####################################################################################################
# STATUS OUTPUT
####################################################################################################
compute         eint all smd/energy
compute         eelastic all reduce sum c_eint[1]
compute         ethermal all reduce sum c_eint[2]
variable        etot equal pe+ke+c_eelastic+c_ethermal+f_gfix # total energy of the system
thermo 20
thermo_style custom step dt f_dtfix pe ke v_etot

####################################################################################################
# RUN SIMULATION
####################################################################################################
balance          1.1 rcb
#fix              balance_fix all balance 1000 1.1 rcb 
#velocity         water set 0 -1 0 units box
smd_run_duration 10000 # this is 10 sec -- we work in microseconds here
run              9999999
