####################################################################################################
#
# MPM example: An elastic material slides down an inclined plate read from a .STL file
#
# unit sytem: GPa / mm / ms
#
####################################################################################################


####################################################################################################
# MATERIAL PARAMETERS
####################################################################################################
variable 	c0 equal 10.0 # speed of sound for fluid
variable 	rho equal 1.0e-6 # initial mass density
variable        q1 equal 0.06 # standard artificial viscosity linear coefficient
variable        q2 equal 0.0  # standard artificial viscosity quadratic coefficient
variable        hg equal 0.0 # hourglass control coefficient
variable        cp equal 1.0 # heat capacity of material -- not used here
variable        K equal ${c0}^2*${rho}
variable        contact_stiffness equal 10*${K}
variable        wall_temperature equal 100
variable        friction_coeff equal 0.0

####################################################################################################
# INITIALIZE LAMMPS
####################################################################################################
dimension       3
units		si
boundary        f f f # simulation box boundaries
atom_style      smd
atom_modify	map array
comm_modify     vel yes
comm_style      brick
neigh_modify    every 10 delay 0 check yes exclude type 2 2 one 10000
newton          off

####################################################################################################
# CREATE INITIAL GEOMETRY
####################################################################################################
variable 	l0 equal 1 # lattice spacing for creating particles
lattice 	bcc ${l0}
region		box block 0 60 -5 15 -5 36 units box
create_box 	2 box
region		particles block 2 8 2 8 0 8 units box
#region          particles cylinder y 5 4 4 2 8 units box
create_atoms 	1 region particles

group           water type 1


####################################################################################################
# DISCRETIZATION PARAMETERS
####################################################################################################
variable 	vol_one equal ${l0}^3 # volume of one particle -- assuming unit thickness
variable 	skin equal 0.2*${l0} # Verlet list range
neighbor        ${skin} bin
variable        cr equal ${l0}/2
set             group all smd_contact_radius ${cr}
set 		group all volume ${vol_one}
set             group all smd_mass_density ${rho}
set 		group all diameter ${cr} # set SPH kernel radius
variable        mpm_cellsize equal ${l0}
displace_atoms  water move 0 0 ${cr} units box
displace_atoms  water rotate 50 0 0 0 1 0 30 units box

####################################################################################################
# DEFINE GRAVITY BOUNDARY CONDITION
####################################################################################################
fix		gfix all gravity 0.01 vector 0.0 0.0 -1.0

####################################################################################################
# LOAD STL SURFACE
####################################################################################################
smd_create/tri_boundary inclined_plate.stl 2 65535
group           surface type 2

####################################################################################################
# INTERACTION PHYSICS / MATERIAL MODEL
####################################################################################################
pair_style      hybrid/overlay smd/tri_surface 1.0 &
                smd/mpm_linear ${mpm_cellsize} FLIP 0.99
pair_coeff      1 1 smd/mpm_linear
pair_coeff      2 2 none
pair_coeff      1 2 smd/tri_surface ${contact_stiffness} ${wall_temperature} ${friction_coeff}


####################################################################################################
# TIME INTEGRATION
####################################################################################################
#fix             force_fix surface setforce 0 0 0
fix             dtfix all smd/adjust_dt 0.5 # dynamically adjust time increment every step

####################################################################################################
# SPECIFY TRAJECTORY OUTPUT
####################################################################################################
variable        dumpFreq equal 10
compute 	rho all smd/rho
compute         contact_radius all smd/contact_radius
compute         surface_coords surface smd/triangle_vertices


dump 		dump_id all custom ${dumpFreq} dump.LAMMPS id type x y z vx vy vz &
			c_rho c_contact_radius proc
dump_modify 	dump_id first yes

dump            surf_dump surface custom 999999999 surface.LAMMPS id type mol x y z  &
                  c_surface_coords[1] c_surface_coords[2] c_surface_coords[3]          &
                  c_surface_coords[4] c_surface_coords[5] c_surface_coords[6]          &
                  c_surface_coords[7] c_surface_coords[8] c_surface_coords[9]
dump_modify 	surf_dump first yes

####################################################################################################
# STATUS OUTPUT
####################################################################################################
compute         eint all smd/energy
compute         alleint all reduce sum c_eint[1]
compute         vx_block water reduce ave vx
compute         fx_block water reduce sum fx
compute         fz_block water reduce sum fz

variable        time equal f_dtfix
variable        vel equal c_vx_block
variable        fx_block equal c_fx_block
variable        fz_block equal c_fz_block
fix extra all print 10 "${time} ${vel} ${fx_block} ${fz_block}" file time_velocity_${friction_coeff}.dat screen no
variable        etot equal pe+ke+c_alleint+f_gfix # total energy of the system
thermo 20
thermo_style custom step dt f_dtfix pe ke v_etot c_vx_block


####################################################################################################
# RUN SIMULATION
####################################################################################################
#balance          1.1 rcb
#fix              balance_fix all balance 1000 1.1 rcb 
#velocity         water set 0 -1 0 units box
run              50000
