####################################################################################################
#
# flow particles from left to right
# unit sytem: GPa / mm / ms
# need to fix distance cutoff: master list is worng!
#
####################################################################################################

####################################################################################################
# MATERIAL PARAMETERS
####################################################################################################
variable        rho equal 1000 # mass density water
variable        c0 equal 10.0 # speed of sound for water
variable        K equal  ${c0}*${c0}*${rho} # Young's modulus for solid objects
variable        nu equal 0.3 # Poisson ratio for solid objects
variable        G equal 3*${K}*(1-2*${nu})/(2*(1+${nu}))
variable        SIGY0 equal 0.001*${G} # plastic yield stress for solid objects
variable        HARDENING equal 0 # plastic hardening parameter for solid objects
variable        contact_stiffness equal 10*${K} # contact force amplitude
variable        q1 equal 0.06 # artificial viscosity
variable        q2 equal 0.0 # artificial viscosity
variable        Hg equal 10 # Hourglass control coefficient for solid objects
variable        Cp equal 1.0 # heat capacity -- not used here
variable        contact_scale equal 2.0 # scale factor to increase contact gap between bodies
variable        temp_left equal 200
variable        temp_right equal 100


####################################################################################################
# INITIALIZE LAMMPS
####################################################################################################
units		si
dimension       2
#processors      2 1 1
boundary        f f p
atom_style      smd
neigh_modify    once yes

comm_modify     vel yes
newton          off
#atom_modify     map hash
#comm_style      brick

####################################################################################################
# CREATE SIMULATION BOX
####################################################################################################
variable        l0 equal 1 # initial particle lattice spacing
variable        cr equal 0.5*${l0}
lattice         sq ${l0}
region          box block 0 80 -0.01 13.01 -0.1 0.1 units box
create_box      2 box
region          inflow block 0.9 1.0 0 12 EDGE EDGE units box
region          constvel block EDGE 5 EDGE EDGE EDGE EDGE units box
region          outflow block 78.1 EDGE EDGE EDGE EDGE EDGE units box

region          material block 25 60 5 EDGE EDGE EDGE units box
region          p prism 25 60 5 EDGE -0.1 0.1 -20 0 0 side in units box
region          liner union 2 material p
region          SPC block 5 60 13 EDGE EDGE EDGE units box


####################################################################################################
# CREATE PARTICLES
####################################################################################################
group inflow 	type 1

create_atoms    2 region liner

####################################################################################################
# DISCRETIZATION PARAMETERS
####################################################################################################
variable        dtCFL equal 0.1*sqrt(${K}/${rho})
variable        vol_one equal ${l0}^2 # initial particle volume for 2d simulation
variable        contact_radius equal ${cr}
set             group all diameter ${l0}
set             group all smd_contact_radius ${cr}
set             group all volume  ${vol_one}
set             group all smd_mass_density ${rho}
set             group all smd_heat 1
set             region SPC mol 1000

variable        skin equal 0.1*${l0} # Verlet list range
neighbor        ${skin} bin
variable        mpm_cellsize equal 1.0*${l0}

####################################################################################################
# DEFINE BOUNDARY CONDITIONS
####################################################################################################
#fix             walls all wall/reflect xlo EDGE xhi EDGE ylo EDGE yhi EDGE units box
#fix             gfix all gravity -9.81e-3 vector 0 0 1 # add gravity
fix 		inflow all smd/inflow rho 1000 radius ${cr} freq 20 region inflow velocity 0.05 &
                direction x type 1 contact_radius ${cr} heat 0
fix             outflow all smd/outflow 10 outflow

####################################################################################################
# SET TEMPERATURE
####################################################################################################
variable        mass_one equal ${rho}*${vol_one}
variable 	heat_left equal ${temp_left}*${mass_one}*${Cp}
variable 	heat_right equal ${temp_right}*${mass_one}*${Cp}

####################################################################################################
# INTERACTION PHYSICS / MATERIAL MODEL
# 3 different pair styles are used:
#     - updated Lagrangian SPH for water
#     - total Lagrangian SPH for solid objects
#     - a repulsive Hertzian potential for contact forces between different physical bodies
####################################################################################################
pair_style      smd/mpm/multiple ${mpm_cellsize} sym_y_+ -0.01
pair_coeff      1 1 *COMMON ${rho} ${c0} ${q1} ${Cp} ${Hg} &
                              *EOS_TAIT 2 &
			      *HEAT_CONDUCTION 0 &
	                      *END
pair_coeff      2 2 *COMMON ${rho} ${c0} ${q1} ${Cp} ${Hg} &
                              *EOS_TAIT 2 &
			      *HEAT_CONDUCTION 0 &
                              *STRENGTH_LINEAR ${G} &
	                      *END
pair_coeff      1 2 *CROSS *END


#                              *STRENGTH_LINEAR_PLASTIC ${G} ${SIGY0} ${HARDENING} &

####################################################################################################
# TIME INTEGRATION
####################################################################################################
fix             dtfix all smd/adjust_dt 0.5 # dynamically adjust time increment every step
fix             integration_fix_water all smd/integrate_mpm FLIP 0.9 exclude_region constvel

####################################################################################################
# SPECIFY TRAJECTORY OUTPUT
####################################################################################################
compute         eint all smd/internal_energy
compute         contact_radius all smd/contact_radius
compute         vol all smd/volume
compute         rho all smd/rho
compute         peatom all pe/atom
compute         S all smd/ulsph_stress
compute         D all smd/ulsph_strain_rate
compute         p all smd/plastic_strain
compute         q all smd/heat

dump            dump_id all custom 500 dump.LAMMPS id type x y z &
                fx fy fz vx vy vz c_eint c_contact_radius mol &
                radius c_vol c_rho proc c_peatom c_S[1] c_S[2] c_S[4] c_D[1] c_D[2] c_D[4] c_q c_p
dump_modify     dump_id first yes


####################################################################################################
# STATUS OUTPUT
####################################################################################################
compute         alleint all reduce sum c_eint
compute         allq all reduce sum c_q
variable        etot equal pe+ke+c_alleint # total energy of the system
thermo          100
thermo_style    custom step ke pe v_etot c_alleint dt time
thermo_modify   lost warn

####################################################################################################
# RUN SIMULATION
####################################################################################################



#velocity  all set 0.05 0 0 units box
#fix 2 all balance 1000 1.1 rcb 
#fix 2 all balance 1000 1.05 shift x 10 1.05

run 300000

#unfix  		inflow
#run             25000
