####################################################################################################
#
# MPM example: extrusion through a channel defined by an .STL file
#
# unit sytem: GPa / mm / ms
#
####################################################################################################


####################################################################################################
# MATERIAL PARAMETERS
####################################################################################################
variable 	c0 equal 50.0 # speed of sound for fluid
variable 	rho equal 1.0e-6 # initial mass density
variable        q1 equal 0.06 # standard artificial viscosity linear coefficient
variable        q2 equal 0.0  # standard artificial viscosity quadratic coefficient
variable        hg equal 0.0 # hourglass control coefficient
variable        cp equal 4200.0 # heat capacity of water [J/(kg K)]
variable        K equal ${c0}^2*${rho}
variable        contact_stiffness equal 10*${K}
variable        wall_temperatureA equal 50 #
variable        friction_coeffA equal 0.0
variable        wall_temperatureB equal 1 #
variable        friction_coeffB equal 0.1
variable        vel equal 0.2

####################################################################################################
# INITIALIZE LAMMPS
####################################################################################################
dimension       3
units		si
boundary        f f f # simulation box boundaries
atom_style      smd
atom_modify	map array
comm_modify     vel yes
comm_style      tiled
neigh_modify    once yes exclude type 2 2  exclude type 3 3
newton          off

####################################################################################################
# CREATE INITIAL GEOMETRY
####################################################################################################
variable 	l0 equal 0.5 # lattice spacing for creating particles
lattice 	sc ${l0}
region		box block -100 100 -13 13 -0.6 0.6 units box
create_box 	3 box

region          inflow   block -20 -19.9 -12 12 -0.1 0.1 units box #particles are inserted here
region          outflow  block 20 90 -3.49 3.49 EDGE EDGE units box #particles are removed here
region          constvel block -20 -10 EDGE EDGE EDGE EDGE units box #particles are moved at const. vel. in this region

group           fluid type 1


####################################################################################################
# DISCRETIZATION PARAMETERS
####################################################################################################
#variable 	vol_one equal ${l0}^3 # volume of one particle -- assuming unit thickness
variable 	skin equal 0.2*${l0} # Verlet list range
neighbor        ${skin} bin
variable        cr equal ${l0}/2
#set             group all smd_contact_radius ${cr}
#set 		group all volume ${vol_one}
#set             group all smd_mass_density ${rho}
#set 		group all diameter ${cr} # set SPH kernel radius
variable        mpm_cellsize equal ${l0}
#displace_atoms  fluid move 0 0 ${cr} units box
#displace_atoms  fluid rotate 50 0 0 0 1 0 30 units box

####################################################################################################
# LOAD STL SURFACE
####################################################################################################
smd_create/tri_boundary 2D_Extruder.stl 2 65535
group           surfA type 2
smd_create/tri_boundary 2D_Cooler.stl 3 65536
group           surfB type 3

####################################################################################################
# INTERACTION PHYSICS / MATERIAL MODEL
####################################################################################################
pair_style      hybrid/overlay smd/tri_surface 1.0 &
                smd/mpm ${mpm_cellsize}
pair_coeff      1 1 smd/mpm   *COMMON ${rho} ${c0} ${q1} ${cp} ${hg} &
                              *EOS_TAIT 2 &
                              *HEAT_CONDUCTION 0.6e-6 &
	                      *END
pair_coeff      2 2 none
pair_coeff      3 3 none
pair_coeff      2 3 none
pair_coeff      1 2 smd/tri_surface ${contact_stiffness} ${wall_temperatureA} ${friction_coeffA}
pair_coeff      1 3 smd/tri_surface ${contact_stiffness} ${wall_temperatureB} ${friction_coeffB}

####################################################################################################
# DEFINE BOUNDARY CONDITIONS
####################################################################################################
fix 		inflow fluid smd/inflow rho ${rho} radius ${cr} freq 2 region inflow velocity ${vel} &
                direction x type 1 contact_radius ${cr} heat 50
fix             outflow all smd/outflow 10 outflow


####################################################################################################
# TIME INTEGRATION
####################################################################################################
fix             force_fix surfA setforce 0 0 0
fix             dtfix all smd/adjust_dt 0.5 # dynamically adjust time increment every step
fix             integration_fix fluid smd/integrate_mpm FLIP 1 exclude_region constvel ${vel} 0 0 2d

####################################################################################################
# SPECIFY TRAJECTORY OUTPUT
####################################################################################################
variable        dumpFreq equal 10
compute 	rho all smd/rho
compute         contact_radius all smd/contact_radius
compute         surfA_coords surfA smd/triangle_vertices
compute         heat all smd/heat


dump 		dump_id all custom ${dumpFreq} dump.LAMMPS id type x y z vx vy vz &
			c_rho c_contact_radius proc c_heat
dump_modify 	dump_id first yes

dump            surf_dump surfA custom 999999999 surfA.LAMMPS id type mol x y z  &
                  c_surfA_coords[1] c_surfA_coords[2] c_surfA_coords[3]          &
                  c_surfA_coords[4] c_surfA_coords[5] c_surfA_coords[6]          &
                  c_surfA_coords[7] c_surfA_coords[8] c_surfA_coords[9]
dump_modify 	surf_dump first yes

####################################################################################################
# STATUS OUTPUT
####################################################################################################
compute         eint all smd/internal_energy
compute         alleint all reduce sum c_eint
compute         vx_block fluid reduce ave vx
compute         fx_block fluid reduce sum fx
compute         fz_block fluid reduce sum fz

variable        time equal f_dtfix
variable        vel equal c_vx_block
variable        fx_block equal c_fx_block
variable        fz_block equal c_fz_block
#fix extra all print 10 "${time} ${vel} ${fx_block} ${fz_block}" file time_velocity_${friction_coeff}.dat screen no
variable        etot equal pe+ke+c_alleint # total energy of the system
thermo 20
thermo_style custom step dt f_dtfix pe ke v_etot c_vx_block


####################################################################################################
# RUN SIMULATION
####################################################################################################
#balance          1.1 rcb
#fix              balance_fix all balance 1000 1.1 rcb 
#velocity         fluid set 0 -1 0 units box
run              10000
